n = 8;

m = 3;
L = [3,3,2];
res = [| 0,3,1,0,2,1,0,0
       | 3,0,2,1,0,0,0,0
       | 1,1,1,1,1,1,1,1 |];

d = [7,4,3,3,2,2,3,3];
l = 8;
pre = [| 1, 2
       | 1, 3
       | 1, 4
       | 3, 5
       | 3, 8
       | 2, 6
       | 4, 7
       | 5, 7 |];

maxt = 25;
